Route #1: 43 16 48 1 36 10 17 32 26
Route #2: 54 46 5 37 50 52
Route #3: 57 11 63 25 42 28
Route #4: 27 65 55 60 4 47 14 34
Route #5: 7 67 21 61 64 18 31 19
Route #6: 44 15 3 51 6 30 9 49 33 2 53
Route #7: 23 12 22 24
Route #8: 58 66 13 35 45 20 41 59 38 40 29
Route #9: 68 8 39 56 62
Cost 1165
Time 0.167277
